#! XTB2 ALPB(water) NEB-TS NumFreq
#! r2SCAN-3c noautostart nopop CPCM optTS
! wB97M-V def2-TZVP def2/J RIJCOSX strongSCF noautostart  nopop CPCM
#! BLYP D3 def2-SVP def2/J CPCM optTS NumFreq slowconv tightscf
#! B3LYP SV(P) NEB-TS cpcm

%maxcore  2400
%pal nprocs  24 end
%geom
 calc_hess true
end
%cpcm
  smd true
  SMDsolvent "WATER"
end

*xyzfile carga mult llts_for_hlts.xyz
