! XTB2 ALPB(water) OptTS NumFreq NormalConv tightscf
#! BLYP D3 def2-SVP def2/J CPCM NEB-TS NumFreq
#! B3LYP SV(P) NEB-TS cpcm
#! B97-3c cpcm ZOOM-NEB-TS numFreq

%maxcore  24000
%pal nprocs  12 end
%geom
 calc_hess true
 NumHess true # Request numerical Hessian (analytical not available)
 Recalc_Hess 5  # Recalculate the Hessian every 5 steps
 maxiter 400
end

*xyzfile carga mult tsguess.xyz
