! PM3 Opt
%maxcore  1500
#%pal nprocs  8 end
%geom Scan
B 9 8 = 4.0, 1.1, 30 
end
end
* xyzfile -1 1 reactant.xyz
