! XTB2 ALPB(water) NumFreq tightscf kdiis soscf slowconv irc
#! BLYP D3 def2-SVP def2/J CPCM NEB-TS NumFreq
#! B3LYP SV(P) NEB-TS cpcm

%maxcore  24000
%pal nprocs  12 end
%geom
 calc_hess true
 NumHess true # Request numerical Hessian (analytical not available)
 Recalc_Hess 2  # Recalculate the Hessian every 5 steps
end
%scf
 maxiter 150
end

*xyzfile carga mult ts_for_irc.xyz
