#! XTB2 ALPB(water) NEB-TS NumFreq
! M062X 6-311g(d,p) noautostart nopop CPCM tightscf defgrid3 irc 
#! r2SCAN-3c noautostart nopop CPCM optTS NumFreq
#! wB97M-V def2-TZVP def2/J RIJCOSX strongSCF noautostart  nopop CPCM NumFreq optTS
#! BLYP D3 def2-SVP def2/J CPCM optTS NumFreq slowconv tightscf
#! B3LYP SV(P) NEB-TS cpcm

%maxcore  3000
%pal nprocs  30 end
%irc
 maxiter  30
 inithess read
 hess_filename "hess_file1"
 end
%cpcm
  smd true
  SMDsolvent "WATER"
end

*xyzfile carga mult hlts_for_hlirc.xyz
